\* Paris_Visit_-_Max._number_of_sites_(must_visit_effiel_tower_and_catacombs) *\
Maximize
Max._number_of_sites: 4 CA + 5 TE
Subject To
Max._duration: 3 CA + 4.5 TE <= 12
Max._price: 12 CA + 15.5 TE <= 65
Must_visit_CA: CA = 1
Must_visit_TE: TE = 1
Binaries
CA
TE
End
